column=10;
row=10;
Board=[|7,0,0,2,5,6,0,0,0,0|0,0,0,0,2,0,10,8,0,0|0,0,0,9,0,4,5,0,6,0|0,0,8,0,0,0,0,0,0,0|3,6,0,8,0,2,4,0,5,0|10,0,0,0,0,7,0,0,0,5|0,3,0,10,0,0,0,5,0,2|5,1,0,4,8,10,9,0,0,3|0,0,5,3,0,1,8,2,0,0|0,2,9,6,10,0,3,0,0,0|];
horizontal=[|0,0,2,0,0,2,0,0,2|0,2,0,2,0,0,2,0,1|0,2,0,2,0,0,0,1,0|0,1,0,0,0,1,0,0,1|1,1,0,0,0,1,1,2,1|0,0,0,0,1,2,1,1,2|2,2,1,2,0,0,0,2,0|0,1,0,0,1,0,2,2,0|0,2,2,1,0,0,0,0,1|0,0,2,0,0,2,0,1,1|];
vertical=[|0,2,1,1,2,0,1,0,0,1|0,0,0,1,0,2,2,2,0,0|0,0,1,0,0,2,0,1,0,0|1,1,0,1,2,2,2,2,0,1|0,0,0,2,1,0,2,2,1,2|2,0,2,0,0,0,0,1,0,0|2,0,0,2,1,0,1,0,0,0|1,0,2,0,0,0,0,0,0,0|0,0,0,0,0,0,2,0,2,2|];
